proyfinal/src/viki/013/experimentInOfficeAgust.take6.output/59f5c493-39fc-4901-988a-a94a0f7a73be.als.out
Reading from standard input... Use '--help' for help.
============================[ Problem Statistics ]=============================
|                                                                             |
|  Number of variables:         87638                                         |
|  Number of clauses:          161767                                         |
|  Parse time:                   0.04 s                                       |
|                                                                             |
============================[ Search Statistics ]==============================
| Conflicts |          ORIGINAL         |          LEARNT          | Progress |
|           |    Vars  Clauses Literals |    Limit  Clauses Lit/Cl |          |
===============================================================================
|       100 |   63333   108539   271281 |    39797      100     14 | 27.733 % |
|       250 |   63333   108539   271281 |    43777      250     26 | 27.733 % |
|       475 |   63333   108539   271281 |    48155      475     55 | 27.733 % |
|       812 |   63333   108539   271281 |    52970      812     63 | 27.733 % |
|      1318 |   63333   108539   271281 |    58267     1318     56 | 27.733 % |
|      2077 |   63311   108447   271070 |    64094     2075     69 | 27.759 % |
|      3216 |   63311   108447   271070 |    70503     3214     84 | 27.759 % |
|      4924 |   63310   108403   270980 |    77554     4919     86 | 27.760 % |
|      7486 |   63290   108319   270787 |    85309     7480     94 | 27.782 % |
|     11330 |   51975    75549   189846 |    93840    11148     90 | 40.694 % |
|     17096 |   51708    73609   185170 |   103224    16727     80 | 40.998 % |
===============================================================================
restarts              : 77
conflicts             : 21323          (6535 /sec)
decisions             : 63528          (0.00 % random) (19470 /sec)
propagations          : 30925318       (9478194 /sec)
conflict literals     : 1594107        (49.13 % deleted)
Memory used           : 39.16 MB
CPU time              : 3.26279 s

INDETERMINATE
